
List of user-set options:

                                    Name   Value                used
                        file_print_level = 5                     yes
                   hessian_approximation = limited-memory        yes
                           linear_solver = mumps                 yes
                      nlp_scaling_method = user-scaling          yes
                             output_file = IPOPT.out             yes
                             print_level = 0                     yes
                      print_user_options = yes                   yes
                                      sb = yes                   yes
This is Ipopt version 3.14.6, running with linear solver MUMPS 5.2.1.

Number of nonzeros in equality constraint Jacobian...:        0
Number of nonzeros in inequality constraint Jacobian.:        2
Number of nonzeros in Lagrangian Hessian.............:        0

Total number of variables............................:        2
                     variables with only lower bounds:        0
                variables with lower and upper bounds:        2
                     variables with only upper bounds:        0
Total number of equality constraints.................:        0
Total number of inequality constraints...............:        1
        inequality constraints with only lower bounds:        1
   inequality constraints with lower and upper bounds:        0
        inequality constraints with only upper bounds:        0

iter    objective    inf_pr   inf_du lg(mu)  ||d||  lg(rg) alpha_du alpha_pr  ls
   0  2.3293028e+00 0.00e+00 2.31e+00   0.0 0.00e+00    -  0.00e+00 0.00e+00   0
   1  1.5132169e+00 0.00e+00 2.56e+00  -0.5 3.07e-01    -  9.90e-01 9.55e-01f  1
   2  1.5061290e+00 0.00e+00 3.37e-02  -2.5 2.84e-01    -  9.90e-01 1.00e+00h  1
   3  1.5050901e+00 0.00e+00 4.43e-03  -4.6 2.78e-01    -  9.58e-01 1.00e+00h  1
   4  1.5050526e+00 0.00e+00 1.32e-03  -5.9 4.13e+00    -  2.27e-01 1.00e+00h  1
   5  1.4800610e+00 0.00e+00 1.85e-01  -4.8 7.38e+03    -  1.31e-03 1.00e+00h  1
   6  1.4747618e+00 0.00e+00 2.23e-01 -10.0 3.83e+06    -  1.91e-03 3.88e-04h  9
   7  1.4721225e+00 0.00e+00 2.42e-01 -10.0 3.79e+06    -  2.31e-03 1.93e-04h 10
   8  1.4708054e+00 0.00e+00 2.51e-01 -10.0 3.77e+06    -  2.65e-03 9.64e-05h 11
   9r 1.4708054e+00 0.00e+00 9.99e+02   4.0 0.00e+00    -  0.00e+00 1.88e-07R 20
iter    objective    inf_pr   inf_du lg(mu)  ||d||  lg(rg) alpha_du alpha_pr  ls
  10r 1.4698735e+00 0.00e+00 6.07e-02  -2.5 9.97e+06    -  1.00e+00 9.90e-04f  1
  11  1.4488359e+00 0.00e+00 3.70e+00  -4.5 3.86e+06    -  5.40e-01 1.50e-03h  7
  12  1.4384796e+00 0.00e+00 3.68e+00 -10.0 4.80e+05    -  1.25e-02 5.62e-03h  8
  13  1.4359106e+00 0.00e+00 3.68e+00 -10.3 6.68e+07    -  1.31e-04 9.94e-06h 10
  14  1.4346285e+00 0.00e+00 3.68e+00 -10.3 1.07e+09    -  8.80e-06 3.08e-07h 11
  15  1.4339881e+00 0.00e+00 3.68e+00 -10.3 3.49e+06    -  2.78e-03 4.69e-05h 12
  16r 1.4339881e+00 0.00e+00 9.99e+02   4.0 0.00e+00    -  0.00e+00 1.83e-07R 20
  17r 1.4331288e+00 0.00e+00 5.59e-02  -2.5 1.00e+07    -  1.00e+00 9.90e-04f  1
  18  1.4126582e+00 0.00e+00 3.70e+00  -4.5 3.59e+06    -  1.00e+00 1.46e-03h  7
  19  1.4026913e+00 0.00e+00 3.67e+00  -1.9 3.09e+05    -  2.75e-02 7.81e-03h  8
iter    objective    inf_pr   inf_du lg(mu)  ||d||  lg(rg) alpha_du alpha_pr  ls
  20  1.3976914e+00 0.00e+00 3.67e+00  -9.5 2.96e+06    -  2.66e-03 4.04e-04h  9
  21  1.3952012e+00 0.00e+00 3.67e+00  -9.5 3.22e+06    -  2.81e-03 1.83e-04h 10
  22  1.3945798e+00 0.00e+00 3.67e+00  -9.5 3.20e+06    -  3.01e-03 4.57e-05h 12
  23  1.3942693e+00 0.00e+00 3.67e+00  -9.5 3.20e+06    -  3.41e-03 2.29e-05h 13
  24r 1.3942693e+00 0.00e+00 9.99e+02   4.0 0.00e+00    -  0.00e+00 3.57e-07R 19
  25r 1.3934813e+00 0.00e+00 4.94e-02  -2.5 9.98e+06    -  1.00e+00 9.90e-04f  1
  26  1.3537652e+00 0.00e+00 3.70e+00  -3.9 3.53e+06    -  1.00e+00 2.65e-03h  6
  27  1.3526276e+00 0.00e+00 8.51e+00  -1.2 2.53e+05    -  9.51e-02 9.77e-04h 11
  28  1.3523272e+00 0.00e+00 8.43e+00  -8.4 8.86e+06    -  1.10e-03 7.33e-06h 13
  29  1.3521771e+00 0.00e+00 8.36e+00  -8.4 4.05e+07    -  2.43e-04 8.01e-07h 14
iter    objective    inf_pr   inf_du lg(mu)  ||d||  lg(rg) alpha_du alpha_pr  ls
  30r 1.3521771e+00 0.00e+00 9.99e+02   4.0 0.00e+00    -  0.00e+00 3.65e-07R 19
  31r 1.3514950e+00 0.00e+00 6.03e+00  -2.5 9.99e+06    -  9.94e-01 9.90e-04f  1
  32  1.3130758e+00 0.00e+00 3.70e+00  -4.0 3.23e+06    -  6.18e-01 2.57e-03h  6
  33  1.3085631e+00 0.00e+00 3.68e+00  -1.7 2.26e+05    -  5.26e-02 3.91e-03h  9
  34  1.3062456e+00 0.00e+00 3.68e+00  -9.0 1.52e+07    -  6.13e-04 3.00e-05h 10
  35  1.3056673e+00 0.00e+00 3.68e+00  -9.0 9.93e+07    -  9.85e-05 1.14e-06h 12
  36r 1.3056673e+00 0.00e+00 9.99e+02   4.0 0.00e+00    -  0.00e+00 3.37e-07R 19
  37r 1.3050272e+00 0.00e+00 3.86e-02  -2.5 1.00e+07    -  1.00e+00 9.90e-04f  1
  38  1.2680457e+00 0.00e+00 3.70e+00  -3.6 3.28e+06    -  1.00e+00 2.21e-03h  6
  39  1.2570124e+00 0.00e+00 1.79e+01  -0.9 1.36e+05    -  2.20e-01 1.56e-02h  7
iter    objective    inf_pr   inf_du lg(mu)  ||d||  lg(rg) alpha_du alpha_pr  ls
  40  1.2547958e+00 0.00e+00 1.77e+01  -7.7 2.93e+06    -  3.23e-03 1.32e-04h 10
  41  1.2546576e+00 0.00e+00 1.76e+01  -7.7 7.25e+06    -  1.36e-03 3.33e-06h 14
  42r 1.2546576e+00 0.00e+00 9.99e+02   4.0 0.00e+00    -  0.00e+00 4.18e-07R 19
  43r 1.2542185e+00 0.00e+00 8.28e+00  -2.5 9.99e+06    -  9.92e-01 9.90e-04f  1
  44  1.2190760e+00 0.00e+00 3.70e+00  -3.7 2.86e+06    -  4.50e-01 2.14e-03h  6
  45  1.2030767e+00 0.00e+00 3.63e+00  -1.3 1.68e+05    -  8.30e-02 1.56e-02h  7
  46  1.1988562e+00 0.00e+00 3.63e+00  -8.4 7.70e+06    -  1.14e-03 8.51e-05h  9
  47  1.1967542e+00 0.00e+00 3.63e+00  -8.4 2.27e+07    -  4.16e-04 1.42e-05h 10
  48  1.1962292e+00 0.00e+00 3.63e+00  -8.4 1.93e+06    -  5.06e-03 4.14e-05h 12
  49  1.1960980e+00 0.00e+00 3.63e+00  -8.4 1.92e+06    -  8.34e-03 1.04e-05h 14
iter    objective    inf_pr   inf_du lg(mu)  ||d||  lg(rg) alpha_du alpha_pr  ls
  50r 1.1960980e+00 0.00e+00 9.99e+02   4.0 0.00e+00    -  0.00e+00 3.27e-07R 19
  51r 1.1956408e+00 0.00e+00 8.16e-01  -2.5 1.00e+07    -  9.99e-01 9.90e-04f  1
  52  1.1619946e+00 0.00e+00 3.69e+00  -2.5 8.36e+06    -  1.00e+00 6.14e-04h  6
  53  1.1531222e+00 0.00e+00 1.15e+01  -0.7 1.09e+04    -  8.11e-01 2.50e-01h  3
  54  1.1451438e+00 0.00e+00 1.11e+01  -6.9 2.30e+05    -  3.34e-02 4.34e-03h  8
  55  1.1411909e+00 0.00e+00 1.09e+01  -6.9 8.02e+05    -  1.10e-02 6.20e-04h  9
  56  1.1392169e+00 0.00e+00 1.07e+01  -6.9 5.40e+05    -  1.74e-02 4.53e-04h 10
  57  1.1382316e+00 0.00e+00 3.61e+00  -6.9 5.16e+05    -  6.70e-01 2.35e-04h 11
  58  1.1377366e+00 0.00e+00 3.31e+00  -6.9 2.05e+05    -  8.86e-02 2.87e-04h 12
  59  1.1374890e+00 0.00e+00 6.45e-01  -6.9 1.94e+05    -  8.35e-01 1.51e-04h 13
iter    objective    inf_pr   inf_du lg(mu)  ||d||  lg(rg) alpha_du alpha_pr  ls
  60  1.1373637e+00 0.00e+00 6.04e-01  -6.8 1.31e+05    -  7.89e-02 1.09e-04h 14
  61r 1.1373637e+00 0.00e+00 9.99e+02   4.0 0.00e+00    -  0.00e+00 4.29e-07R 22
  62r 8.8878033e-01 2.68e-02 9.01e+02   1.4 2.28e+07    -  1.00e+00 9.90e-04f  1
  63r 1.1769023e+00 9.24e-02 7.93e+02   2.1 2.47e+04    -  1.00e+00 9.91e-01f  1
  64  4.1942727e-01 1.20e-01 1.74e+00  -1.3 4.60e+03    -  1.00e+00 4.36e-01H  1
  65  2.0355116e-01 9.98e-02 2.44e+00  -0.7 8.14e+03    -  1.00e+00 9.35e-01h  1
  66  1.5856998e-01 1.04e-01 1.82e-01  -2.2 2.26e+02    -  1.00e+00 1.00e+00h  1
  67  4.6442392e-01 1.22e-01 1.92e+01  -0.2 2.99e+02    -  1.00e+00 9.91e-01h  1
  68  4.6365430e-01 1.22e-01 3.20e-01  -6.1 5.21e+00    -  9.87e-01 1.00e+00h  1
  69  4.6228597e-01 1.22e-01 6.28e-03  -3.6 7.71e-01    -  1.00e+00 1.00e+00h  1
iter    objective    inf_pr   inf_du lg(mu)  ||d||  lg(rg) alpha_du alpha_pr  ls
  70  4.6242000e-01 1.22e-01 1.68e-03  -5.1 4.78e-02    -  1.00e+00 1.00e+00h  1
  71  4.6267069e-01 1.22e-01 2.30e-03  -7.0 3.29e-03    -  1.00e+00 1.00e+00h  1
  72  4.6292785e-01 1.22e-01 8.62e-03  -8.9 9.57e-04    -  1.00e+00 1.00e+00h  1
  73r 4.6292785e-01 1.22e-01 9.99e+02  -0.9 0.00e+00    -  0.00e+00 4.77e-07R 22
  74r 4.6318247e-01 1.22e-01 1.13e+02  -7.5 1.22e+02    -  1.00e+00 9.90e-04f  1
  75r 4.8005004e-01 1.23e-01 2.95e-02  -1.4 5.01e+00    -  1.00e+00 1.00e+00f  1
  76r 4.7788713e-01 1.23e-01 1.33e-02  -3.0 3.01e+00    -  9.94e-01 1.00e+00h  1
  77r 4.7879764e-01 1.23e-01 1.29e-02  -4.2 6.23e-01    -  9.98e-01 1.00e+00h  1
  78r 4.7916540e-01 1.23e-01 3.28e-03  -6.2 5.34e-01    -  1.00e+00 1.00e+00h  1
  79r 4.7951590e-01 1.23e-01 1.44e-03  -7.1 3.08e-01    -  1.00e+00 1.00e+00h  1
iter    objective    inf_pr   inf_du lg(mu)  ||d||  lg(rg) alpha_du alpha_pr  ls
  80r 4.7965400e-01 1.23e-01 2.98e-04  -7.7 2.32e-01    -  1.00e+00 1.00e+00h  1
  81r 4.7968623e-01 1.23e-01 7.22e-05  -9.0 1.64e-01    -  1.00e+00 1.00e+00h  1
  82r 4.7969998e-01 1.23e-01 2.80e-05  -9.0 9.97e-02    -  1.00e+00 1.00e+00h  1
  83r 4.7969998e-01 1.23e-01 2.02e-03  -6.0 3.18e-02    -  1.00e+00 1.00e+00h  1
  84r 4.7969998e-01 1.23e-01 5.07e-04  -6.2 2.60e-02    -  1.00e+00 1.00e+00h  1
  85r 4.7876177e-01 1.23e-01 4.91e-04  -6.2 5.13e-01    -  9.86e-01 1.00e+00h  1
  86r 4.7860340e-01 1.23e-01 1.48e-02  -6.2 5.80e+00    -  1.00e+00 1.01e-01h  1
  87r 4.7714946e-01 1.23e-01 4.64e-05  -6.4 3.17e-01    -  1.00e+00 1.00e+00h  1
  88r 4.7814651e-01 1.23e-01 9.74e-06  -6.6 9.96e-02    -  1.00e+00 1.00e+00h  1
  89r 4.7872962e-01 1.23e-01 3.41e-06  -6.6 3.51e-02    -  1.00e+00 1.00e+00h  1
iter    objective    inf_pr   inf_du lg(mu)  ||d||  lg(rg) alpha_du alpha_pr  ls
  90r 4.7907368e-01 1.23e-01 9.88e-06  -6.6 4.81e-02    -  1.00e+00 1.00e+00h  1
  91r 4.7936369e-01 1.23e-01 1.51e-05  -6.6 4.05e-02    -  1.00e+00 1.00e+00h  1
  92r 4.7956912e-01 1.23e-01 3.10e-05  -6.6 3.89e-02    -  1.00e+00 1.00e+00h  1
  93r 4.7968252e-01 1.23e-01 9.48e-05  -6.6 3.88e-02    -  1.00e+00 1.00e+00h  1
  94r 4.7969007e-01 1.23e-01 2.93e-01  -6.6 4.56e-02    -  1.00e+00 3.39e-01h  1
  95r 4.7969007e-01 1.23e-01 4.87e+02  -6.6 1.29e-01    -  1.00e+00 1.18e-03h  1
  96r 4.7958124e-01 1.23e-01 1.41e+04  -6.6 6.35e+00    -  4.61e-02 1.59e-03h  1
  97r 4.7958124e-01 1.23e-01 9.35e-02  -6.6 1.14e-02    -  1.00e+00 1.00e+00h  1
  98r 4.7968924e-01 1.23e-01 5.60e-02  -6.6 8.58e-02    -  0.00e+00 3.95e-07R 17
  99r 4.7968926e-01 1.23e-01 3.41e+04  -6.6 1.23e-01    -  1.00e+00 2.57e-02f  1
iter    objective    inf_pr   inf_du lg(mu)  ||d||  lg(rg) alpha_du alpha_pr  ls
 100r 4.7968926e-01 1.23e-01 6.31e+03  -4.8 1.31e-01    -  1.00e+00 1.00e+00f  1
 101r 4.7968926e-01 1.23e-01 5.57e+02  -0.8 1.13e-02    -  9.98e-01 1.00e+00f  1
 102r 4.7968926e-01 1.23e-01 5.94e+00  -0.8 1.13e+00    -  1.00e+00 1.00e+00f  1
 103r 4.6875776e-01 1.22e-01 8.87e+01  -0.8 1.40e+01    -  7.55e-01 1.00e+00f  1
 104r 4.8187666e-01 1.23e-01 2.60e+00  -0.8 2.81e+00    -  1.00e+00 1.00e+00h  1
 105r 4.8187666e-01 1.23e-01 3.30e+00  -0.8 4.32e+00    -  1.00e+00 1.00e+00h  1
 106r 4.8144096e-01 1.23e-01 5.98e+00  -0.8 3.86e+00    -  1.00e+00 1.00e+00h  1
 107r 4.8144096e-01 1.23e-01 9.60e+00  -0.8 2.15e+00    -  1.00e+00 1.00e+00h  1
 108r 4.8007786e-01 1.23e-01 2.87e+00  -0.8 8.29e-01    -  1.00e+00 1.00e+00h  1
 109r 4.7993452e-01 1.23e-01 3.37e+00  -1.5 6.55e-01    -  1.00e+00 1.00e+00h  1
iter    objective    inf_pr   inf_du lg(mu)  ||d||  lg(rg) alpha_du alpha_pr  ls
 110r 4.7993452e-01 1.23e-01 1.15e-01  -1.5 3.31e-01    -  1.00e+00 1.00e+00h  1
 111r 4.7970748e-01 1.23e-01 1.14e+00  -2.2 1.45e-01    -  1.00e+00 1.00e+00h  1
 112r 4.7970748e-01 1.23e-01 3.07e+03  -2.2 8.05e-02    -  1.00e+00 4.25e-01h  1
 113r 4.7969001e-01 1.23e-01 7.67e+05  -2.2 4.55e-02    -  1.00e+00 1.07e-02h  1
 114r 4.7969001e-01 1.23e-01 1.32e+07  -2.2 4.76e-01    -  5.43e-01 3.20e-02h  1
 115r 4.7969001e-01 1.23e-01 3.29e+05  -2.2 7.69e-03    -  1.00e+00 1.67e-01h  2
 116r 4.7969001e-01 1.23e-01 5.39e+02  -2.2 8.44e-03    -  1.00e+00 1.00e+00f  1
 117r 4.7968794e-01 1.23e-01 1.01e+06  -2.2 2.17e-02    -  1.00e+00 3.07e-01h  1
 118r 4.7968794e-01 1.23e-01 4.92e+06  -2.2 8.17e-02    -  2.40e-01 1.60e-01h  1
 119r 4.7968794e-01 1.23e-01 2.97e+03  -2.2 9.91e-03    -  1.00e+00 1.00e+00h  1
iter    objective    inf_pr   inf_du lg(mu)  ||d||  lg(rg) alpha_du alpha_pr  ls
 120r 4.7968794e-01 1.23e-01 1.21e+06  -7.8 6.30e-02    -  2.27e-02 2.70e-02h  1
 121r 4.7969026e-01 1.23e-01 7.53e+06  -0.4 1.24e-01    -  8.30e-03 1.00e+00h  1
 122r 4.7969013e-01 1.23e-01 4.90e+00  -0.9 9.70e-04    -  1.00e+00 1.00e+00f  1
 123r 4.7969008e-01 1.23e-01 5.41e-01  -1.6 1.05e-04    -  1.00e+00 1.00e+00h  1
 124r 4.7969007e-01 1.23e-01 3.44e-01  -2.4 5.06e-05    -  1.00e+00 1.00e+00h  1
 125r 4.7969007e-01 1.23e-01 5.77e-02  -3.6 1.20e-05    -  1.00e+00 1.00e+00h  1
 126r 4.7969007e-01 1.23e-01 1.67e-03  -5.3 3.28e-06    -  1.00e+00 1.00e+00h  1
 127r 4.7969007e-01 1.23e-01 2.50e-04  -8.0 2.60e-07    -  1.00e+00 1.00e+00h  1

Number of Iterations....: 127

                                   (scaled)                 (unscaled)
Objective...............:   4.7969006585628732e-01    4.7969006585628732e-01
Dual infeasibility......:   7.3984505165139529e+00    7.3984505165139529e+00
Constraint violation....:   1.2296872961582694e-01    1.2296872961582694e-01
Variable bound violation:   9.9999999392252903e-09    9.9999999392252903e-09
Complementarity.........:   9.0909224591978088e-10    9.0909224591978088e-10
Overall NLP error.......:   1.2296872961582694e-01    7.3984505165139529e+00


Number of objective function evaluations             = 207
Number of objective gradient evaluations             = 74
Number of equality constraint evaluations            = 0
Number of inequality constraint evaluations          = 782
Number of equality constraint Jacobian evaluations   = 0
Number of inequality constraint Jacobian evaluations = 139
Number of Lagrangian Hessian evaluations             = 0
Total seconds in IPOPT                               = 9.109

EXIT: Converged to a point of local infeasibility. Problem may be infeasible.
